<number of tasks>
250

<cycle time>
1000

<order strength>
0.895


<task times>
1 224
2 30
3 124
4 187
5 174
6 213
7 81
8 126
9 159
10 459
11 262
12 78
13 58
14 27
15 97
16 503
17 39
18 103
19 229
20 199
21 277
22 382
23 79
24 45
25 36
26 290
27 95
28 541
29 71
30 503
31 315
32 254
33 337
34 364
35 46
36 133
37 179
38 341
39 510
40 33
41 219
42 111
43 39
44 488
45 220
46 168
47 158
48 222
49 128
50 521
51 473
52 480
53 145
54 140
55 120
56 306
57 393
58 35
59 169
60 387
61 200
62 223
63 145
64 105
65 172
66 152
67 385
68 502
69 274
70 487
71 112
72 79
73 190
74 57
75 92
76 495
77 239
78 327
79 97
80 74
81 26
82 287
83 69
84 82
85 248
86 443
87 166
88 308
89 572
90 107
91 506
92 197
93 334
94 54
95 110
96 76
97 112
98 513
99 433
100 98
101 232
102 23
103 157
104 302
105 154
106 445
107 65
108 477
109 122
110 417
111 123
112 431
113 253
114 81
115 468
116 273
117 227
118 222
119 206
120 127
121 184
122 398
123 92
124 229
125 108
126 189
127 23
128 65
129 168
130 237
131 160
132 208
133 170
134 126
135 267
136 58
137 149
138 202
139 135
140 142
141 108
142 194
143 586
144 89
145 287
146 396
147 150
148 149
149 88
150 221
151 140
152 104
153 125
154 212
155 145
156 510
157 58
158 71
159 110
160 199
161 218
162 168
163 390
164 99
165 48
166 61
167 320
168 178
169 86
170 120
171 47
172 434
173 507
174 208
175 194
176 173
177 465
178 549
179 158
180 314
181 203
182 538
183 319
184 47
185 258
186 60
187 415
188 281
189 98
190 584
191 177
192 296
193 59
194 99
195 40
196 50
197 260
198 299
199 51
200 139
201 179
202 100
203 530
204 101
205 27
206 216
207 92
208 144
209 202
210 62
211 230
212 169
213 404
214 535
215 85
216 69
217 79
218 363
219 540
220 80
221 528
222 183
223 213
224 76
225 267
226 543
227 124
228 331
229 71
230 200
231 208
232 159
233 511
234 503
235 254
236 84
237 43
238 137
239 44
240 102
241 457
242 47
243 537
244 136
245 20
246 241
247 169
248 199
249 106
250 119

<precedence relations>
1,6
1,7
1,8
2,6
2,7
2,8
2,9
2,10
3,60
4,6
4,7
5,6
5,10
6,11
6,12
6,13
6,17
7,11
7,15
7,16
7,17
8,11
8,12
8,14
8,15
8,16
8,17
9,11
9,12
9,16
9,17
10,11
10,13
10,14
10,15
10,16
10,17
11,18
11,19
11,20
11,21
11,22
12,18
12,19
12,20
12,21
12,22
13,18
13,19
14,18
15,18
15,19
15,21
15,22
16,32
16,33
17,18
18,23
18,29
19,23
19,24
19,25
20,23
20,24
21,23
21,29
22,23
22,29
23,26
23,27
23,28
24,28
24,29
25,26
25,27
25,28
25,29
26,30
26,31
26,32
26,33
26,34
27,30
27,31
27,32
27,33
27,34
28,30
28,34
28,39
29,30
29,31
29,32
29,33
30,35
30,36
30,37
30,38
31,35
31,36
31,37
31,39
32,35
32,36
33,35
33,36
33,44
34,35
34,36
34,37
34,40
35,43
35,49
36,41
36,47
37,41
37,42
37,43
37,44
38,41
38,42
38,43
38,44
39,41
39,42
39,43
39,44
40,41
40,42
40,43
40,44
41,46
41,48
41,49
42,45
42,46
42,47
42,48
42,49
43,45
43,46
43,47
44,45
44,48
45,89
45,95
46,50
47,50
47,51
47,52
47,53
48,50
48,51
48,52
48,53
49,50
49,51
49,52
49,53
50,54
50,55
50,56
50,57
51,54
51,55
51,56
51,57
52,54
52,55
52,56
52,57
53,57
54,62
54,74
55,58
55,59
55,60
55,61
55,62
55,63
56,58
56,59
56,60
56,61
56,62
57,58
57,59
57,60
57,61
57,63
58,64
59,65
59,66
59,67
60,64
60,65
60,66
60,67
61,64
61,65
61,66
61,67
62,64
63,64
63,65
63,66
63,67
64,68
64,69
64,70
64,71
64,72
64,73
65,74
66,68
66,69
66,70
66,71
66,72
66,73
66,74
67,68
67,69
67,70
67,71
67,72
67,74
68,75
68,76
68,77
68,78
69,75
70,77
71,75
71,76
72,114
73,75
74,75
74,76
74,77
74,78
75,79
75,84
75,87
75,88
76,79
76,80
76,85
76,87
77,79
77,80
77,82
77,84
78,79
78,80
78,81
78,82
78,83
79,86
80,88
81,145
81,146
82,85
82,87
83,84
83,85
83,86
83,87
83,88
84,89
84,90
84,91
85,89
85,90
85,91
86,89
86,90
86,91
87,89
87,90
88,89
88,90
89,92
89,96
90,92
90,93
90,94
90,95
90,96
91,92
91,93
91,94
91,95
91,96
92,97
92,98
92,99
92,100
93,111
94,97
94,98
94,99
95,99
96,97
96,98
96,99
96,100
97,101
97,102
98,101
98,102
99,103
99,107
99,124
99,146
100,101
100,102
101,104
101,105
102,104
102,105
102,106
102,107
102,108
103,125
104,109
105,111
106,109
106,110
107,134
107,151
107,157
108,109
108,110
108,111
109,112
109,113
110,112
110,113
110,114
110,115
110,116
111,115
111,117
112,118
112,120
113,129
114,118
114,121
115,118
115,119
116,118
116,119
117,118
117,119
117,120
117,121
118,122
118,123
119,122
120,123
121,174
121,179
122,124
122,126
123,124
123,125
123,126
123,127
123,128
123,129
124,132
124,158
124,164
124,174
125,130
125,131
125,132
125,133
125,134
126,130
126,133
126,134
126,135
126,137
126,142
127,130
127,131
127,132
127,136
127,137
127,141
128,130
128,131
128,146
129,130
129,131
130,140
130,158
130,160
131,138
131,142
132,138
132,186
133,138
134,138
134,145
134,148
134,149
135,141
136,139
137,138
137,139
137,145
138,144
138,155
139,143
139,146
139,152
140,143
141,143
141,155
141,156
141,157
141,158
142,143
142,145
142,150
143,148
143,149
143,151
143,161
144,152
144,167
144,187
145,147
145,165
145,166
146,147
146,150
147,153
147,156
147,158
147,170
148,172
149,170
149,178
150,155
150,157
151,153
151,154
152,196
153,181
153,222
154,162
154,163
155,168
155,180
156,169
157,159
157,160
157,161
157,162
158,159
158,161
158,186
159,167
159,187
160,163
160,164
160,165
160,166
160,167
161,163
161,198
162,164
162,166
164,170
164,180
164,186
165,168
165,203
165,212
165,219
166,169
166,170
167,168
167,171
167,180
167,181
167,188
168,207
169,173
169,174
169,179
170,172
170,183
170,188
171,172
171,173
172,176
172,189
172,190
174,175
175,177
175,178
175,180
176,179
176,191
177,182
177,183
178,181
178,183
179,208
181,223
182,184
182,186
182,188
183,185
183,187
184,190
184,191
185,189
185,197
186,219
186,231
186,243
187,190
188,197
190,192
190,193
191,203
191,214
192,194
192,196
192,197
192,198
192,199
193,195
193,199
194,203
195,201
195,202
195,219
196,202
197,221
197,235
197,236
198,200
198,204
198,211
199,200
200,206
200,209
200,226
201,207
202,208
202,213
203,207
203,210
203,211
204,205
204,206
204,208
205,212
205,213
205,214
205,215
206,215
206,217
207,215
207,218
208,212
209,213
209,238
210,235
211,213
212,216
212,217
212,218
213,245
214,219
214,228
215,216
215,237
216,220
216,247
217,221
218,222
219,220
220,224
221,234
222,223
223,224
223,225
223,226
223,227
224,233
224,249
225,230
225,232
226,228
226,231
227,229
227,247
228,234
229,236
230,233
230,235
230,250
231,237
231,246
232,235
233,248
234,238
236,240
236,241
237,239
238,244
240,242
240,245
241,243
243,248
243,249
244,247
244,250
245,246

<end>
